networks/zoo_76_282/zoo_76_282-lower.txt
Number of groups: 35
Flow 1: {1 36 0} {36 6 0} {6 44 0} 
Flow 2: {6 34 0} {34 19 0} {19 57 0} 
Flow 3: {34 72 0} 
Flow 4: {2 6 0} Flow 5: {6 14 0} {14 52 0} 
Flow 6: {19 15 0} {15 53 0} 
Flow 9: {3 6 0} Flow 14: {4 36 0} Flow 18: {19 31 0} {31 69 0} 
Flow 20: {5 35 0} {35 34 0} {34 6 0} Flow 25: {19 12 0} {12 50 0} 
Flow 29: {6 23 0} {23 61 0} 
Flow 32: {34 35 0} {35 73 0} 
Flow 33: {6 36 0} {36 74 0} 
Flow 34: {7 19 0} {19 34 0} Flow 39: {8 35 0} Flow 44: {9 13 0} {13 6 0} Flow 46: {13 34 0} Flow 49: {11 19 0} Flow 55: {12 19 0} Flow 68: {14 6 0} {6 2 0} {2 40 0} 
Flow 69: {36 4 0} {4 42 0} 
Flow 71: {19 7 0} {7 45 0} 
Flow 72: {35 8 0} {8 46 0} 
Flow 73: {6 13 0} {13 9 0} {9 47 0} 
Flow 74: {6 10 0} {10 48 0} 
Flow 75: {19 11 0} {11 49 0} 
Flow 79: {19 20 0} {20 58 0} 
Flow 80: {13 21 0} {21 59 0} 
Flow 82: {34 25 0} {25 63 0} 
Flow 83: {35 26 0} {26 64 0} 
Flow 84: {6 27 0} {27 65 0} 
Flow 85: {6 28 0} {28 66 0} 
Flow 87: {19 32 0} {32 70 0} 
Flow 91: {35 37 0} {37 75 0} 
Flow 92: {15 19 0} Flow 96: {34 13 0} Flow 111: {16 34 0} Flow 116: {17 31 0} {31 19 0} Flow 122: {18 36 0} Flow 125: {36 1 0} {1 39 0} 
Flow 127: {6 3 0} {3 41 0} 
Flow 129: {35 5 0} {5 43 0} 
Flow 137: {13 51 0} 
Flow 140: {34 16 0} {16 54 0} 
Flow 141: {31 17 0} {17 55 0} 
Flow 144: {6 22 0} {22 60 0} 
Flow 150: {19 29 0} {29 67 0} 
Flow 151: {6 30 0} {30 68 0} 
Flow 158: {31 38 0} {38 76 0} 
Flow 159: {20 19 0} Flow 164: {21 13 0} Flow 167: {22 6 0} Flow 172: {23 6 0} Flow 181: {24 31 0} Flow 186: {25 34 0} Flow 191: {26 35 0} Flow 194: {27 6 0} Flow 199: {28 6 0} Flow 204: {29 19 0} Flow 211: {32 19 0} Flow 219: {33 6 0} Flow 275: {37 35 0} Flow 278: {38 31 0} Time taken running everything: 0 seconds
