networks/zoo_76_282/zoo_76_282-lower.sol
<?xml version = "1.0" encoding="UTF-8" standalone="yes"?>
<CPLEXSolution version="1.2">
 <header
   problemName="networks/zoo_76_282/zoo_76_282-lower.lp"
   solutionName="incumbent"
   solutionIndex="-1"
   objectiveValue="35"
   solutionTypeValue="3"
   solutionTypeString="primal"
   solutionStatusValue="101"
   solutionStatusString="integer optimal solution"
   solutionMethodString="mip"
   primalFeasible="1"
   dualFeasible="1"
   MIPNodes="0"
   MIPIterations="0"
   writeLevel="3"/>
 <quality
   epInt="1.0000000000000001e-05"
   epRHS="9.9999999999999995e-07"
   maxIntInfeas="0"
   maxPrimalInfeas="0"
   maxX="1"
   maxSlack="1"/>
 <variables>
  <variable name="Y(1,6)" index="5" value="1"/>
  <variable name="Y(2,19)" index="91" value="1"/>
  <variable name="Y(3,34)" index="179" value="1"/>
  <variable name="Y(5,14)" index="305" value="1"/>
  <variable name="Y(6,15)" index="379" value="1"/>
  <variable name="Y(18,31)" index="1271" value="1"/>
  <variable name="Y(25,12)" index="1763" value="1"/>
  <variable name="Y(29,23)" index="2066" value="1"/>
  <variable name="Y(32,35)" index="2297" value="1"/>
  <variable name="Y(33,36)" index="2371" value="1"/>
  <variable name="Y(68,2)" index="4892" value="1"/>
  <variable name="Y(69,4)" index="4967" value="1"/>
  <variable name="Y(71,7)" index="5116" value="1"/>
  <variable name="Y(72,8)" index="5190" value="1"/>
  <variable name="Y(73,9)" index="5264" value="1"/>
  <variable name="Y(74,10)" index="5338" value="1"/>
  <variable name="Y(75,11)" index="5412" value="1"/>
  <variable name="Y(79,20)" index="5713" value="1"/>
  <variable name="Y(80,21)" index="5787" value="1"/>
  <variable name="Y(82,25)" index="5937" value="1"/>
  <variable name="Y(83,26)" index="6011" value="1"/>
  <variable name="Y(84,27)" index="6085" value="1"/>
  <variable name="Y(85,28)" index="6159" value="1"/>
  <variable name="Y(87,32)" index="6309" value="1"/>
  <variable name="Y(91,37)" index="6606" value="1"/>
  <variable name="Y(125,1)" index="9052" value="1"/>
  <variable name="Y(127,3)" index="9200" value="1"/>
  <variable name="Y(129,5)" index="9348" value="1"/>
  <variable name="Y(137,13)" index="9940" value="1"/>
  <variable name="Y(140,16)" index="10162" value="1"/>
  <variable name="Y(141,17)" index="10236" value="1"/>
  <variable name="Y(144,22)" index="10460" value="1"/>
  <variable name="Y(150,29)" index="10905" value="1"/>
  <variable name="Y(151,30)" index="10979" value="1"/>
  <variable name="Y(158,38)" index="11498" value="1"/>
  <variable name="X(1,36,1)" index="20586" value="1"/>
  <variable name="X(1,39,125)" index="20992" value="1"/>
  <variable name="X(2,6,4)" index="21153" value="1"/>
  <variable name="X(2,40,68)" index="21499" value="1"/>
  <variable name="X(3,6,9)" index="21722" value="1"/>
  <variable name="X(3,41,127)" index="22122" value="1"/>
  <variable name="X(4,36,14)" index="22291" value="1"/>
  <variable name="X(4,42,69)" index="22628" value="1"/>
  <variable name="X(5,35,20)" index="22861" value="1"/>
  <variable name="X(5,43,129)" index="23252" value="1"/>
  <variable name="X(6,2,68)" index="23473" value="1"/>
  <variable name="X(6,3,127)" index="23814" value="1"/>
  <variable name="X(6,10,74)" index="24043" value="1"/>
  <variable name="X(6,13,73)" index="24324" value="1"/>
  <variable name="X(6,14,5)" index="24538" value="1"/>
  <variable name="X(6,22,144)" index="24959" value="1"/>
  <variable name="X(6,23,29)" index="25126" value="1"/>
  <variable name="X(6,27,84)" index="25463" value="1"/>
  <variable name="X(6,28,85)" index="25746" value="1"/>
  <variable name="X(6,30,151)" index="26094" value="1"/>
  <variable name="X(6,34,2)" index="26227" value="1"/>
  <variable name="X(6,36,33)" index="26540" value="1"/>
  <variable name="X(6,44,1)" index="26790" value="1"/>
  <variable name="X(7,19,34)" index="27105" value="1"/>
  <variable name="X(7,45,71)" index="27424" value="1"/>
  <variable name="X(8,35,39)" index="27674" value="1"/>
  <variable name="X(8,46,72)" index="27989" value="1"/>
  <variable name="X(9,13,44)" index="28243" value="1"/>
  <variable name="X(9,47,73)" index="28554" value="1"/>
  <variable name="X(10,48,74)" index="28837" value="1"/>
  <variable name="X(11,19,49)" index="29094" value="1"/>
  <variable name="X(11,49,75)" index="29402" value="1"/>
  <variable name="X(12,19,55)" index="29664" value="1"/>
  <variable name="X(12,50,25)" index="29916" value="1"/>
  <variable name="X(13,6,44)" index="30217" value="1"/>
  <variable name="X(13,9,73)" index="30528" value="1"/>
  <variable name="X(13,21,80)" index="30817" value="1"/>
  <variable name="X(13,34,46)" index="31065" value="1"/>
  <variable name="X(13,51,137)" index="31438" value="1"/>
  <variable name="X(14,6,68)" index="31651" value="1"/>
  <variable name="X(14,52,5)" index="31870" value="1"/>
  <variable name="X(15,19,92)" index="32239" value="1"/>
  <variable name="X(15,53,6)" index="32435" value="1"/>
  <variable name="X(16,34,111)" index="32822" value="1"/>
  <variable name="X(16,54,140)" index="33133" value="1"/>
  <variable name="X(17,31,116)" index="33391" value="1"/>
  <variable name="X(17,55,141)" index="33698" value="1"/>
  <variable name="X(18,36,122)" index="33961" value="1"/>
  <variable name="X(19,7,71)" index="34192" value="1"/>
  <variable name="X(19,11,75)" index="34478" value="1"/>
  <variable name="X(19,12,25)" index="34710" value="1"/>
  <variable name="X(19,15,6)" index="34973" value="1"/>
  <variable name="X(19,20,79)" index="35328" value="1"/>
  <variable name="X(19,29,150)" index="35681" value="1"/>
  <variable name="X(19,31,18)" index="35831" value="1"/>
  <variable name="X(19,32,87)" index="36182" value="1"/>
  <variable name="X(19,34,34)" index="36411" value="1"/>
  <variable name="X(19,57,2)" index="36661" value="1"/>
  <variable name="X(20,19,159)" index="37100" value="1"/>
  <variable name="X(20,58,79)" index="37302" value="1"/>
  <variable name="X(21,13,164)" index="37669" value="1"/>
  <variable name="X(21,59,80)" index="37867" value="1"/>
  <variable name="X(22,6,167)" index="38236" value="1"/>
  <variable name="X(22,60,144)" index="38495" value="1"/>
  <variable name="X(23,6,172)" index="38805" value="1"/>
  <variable name="X(23,61,29)" index="38944" value="1"/>
  <variable name="X(24,31,181)" index="39378" value="1"/>
  <variable name="X(25,34,186)" index="39665" value="1"/>
  <variable name="X(25,63,82)" index="39843" value="1"/>
  <variable name="X(26,35,191)" index="40234" value="1"/>
  <variable name="X(26,64,83)" index="40408" value="1"/>
  <variable name="X(27,6,194)" index="40801" value="1"/>
  <variable name="X(27,65,84)" index="40973" value="1"/>
  <variable name="X(28,6,199)" index="41370" value="1"/>
  <variable name="X(28,66,85)" index="41538" value="1"/>
  <variable name="X(29,19,204)" index="41939" value="1"/>
  <variable name="X(29,67,150)" index="42167" value="1"/>
  <variable name="X(30,68,151)" index="42450" value="1"/>
  <variable name="X(31,17,141)" index="42722" value="1"/>
  <variable name="X(31,19,116)" index="42979" value="1"/>
  <variable name="X(31,38,158)" index="43303" value="1"/>
  <variable name="X(31,69,18)" index="43445" value="1"/>
  <variable name="X(32,19,211)" index="43920" value="1"/>
  <variable name="X(32,70,87)" index="44078" value="1"/>
  <variable name="X(33,6,219)" index="44492" value="1"/>
  <variable name="X(34,6,20)" index="44575" value="1"/>
  <variable name="X(34,13,96)" index="44933" value="1"/>
  <variable name="X(34,16,140)" index="45259" value="1"/>
  <variable name="X(34,19,2)" index="45403" value="1"/>
  <variable name="X(34,25,82)" index="45765" value="1"/>
  <variable name="X(34,35,32)" index="45997" value="1"/>
  <variable name="X(34,72,3)" index="46250" value="1"/>
  <variable name="X(35,5,129)" index="46658" value="1"/>
  <variable name="X(35,8,72)" index="46883" value="1"/>
  <variable name="X(35,26,83)" index="47176" value="1"/>
  <variable name="X(35,34,20)" index="47395" value="1"/>
  <variable name="X(35,37,91)" index="47748" value="1"/>
  <variable name="X(35,73,32)" index="47971" value="1"/>
  <variable name="X(36,1,125)" index="48346" value="1"/>
  <variable name="X(36,4,69)" index="48572" value="1"/>
  <variable name="X(36,6,1)" index="48786" value="1"/>
  <variable name="X(36,74,33)" index="49100" value="1"/>
  <variable name="X(37,35,275)" index="49624" value="1"/>
  <variable name="X(37,75,91)" index="49722" value="1"/>
  <variable name="X(38,31,278)" index="50191" value="1"/>
  <variable name="X(38,76,158)" index="50353" value="1"/>
 </variables>
</CPLEXSolution>
